(set-logic QF_S)
(declare-fun var0 () Int)
(declare-fun var1 () String)
(declare-fun var2 () Int)
(declare-fun var3 () Int)
(declare-fun var4 () String)
(declare-fun var5 () Int)
(declare-fun var6 () String)
(declare-fun var7 () String)
(assert (> 194 var0))
(assert (str.prefixof (str.substr var1 var2 var3) (str.at var4 var5)))
(assert (str.in.re var6 re.allchar))
(assert (str.suffixof var7 var1))
(check-sat)